# Solution for model GasLib-40
# Objective value = 2.2492718967448134e+01
loadshed[innode_1] 0
loadshed[innode_2] 0
loadshed[innode_3] 0
loadshed[innode_4] 0
loadshed[innode_5] 0
loadshed[innode_6] 0
loadshed[innode_7] 0
loadshed[innode_8] 0
loadshed[source_1] -2.8973827745912306e-01
loadshed[source_2] 9.7081617518020025e-02
loadshed[source_3] 3.3493434635928987e-01
loadshed[sink_1] 0
loadshed[sink_2] 0
loadshed[sink_3] 0
loadshed[sink_4] 0
loadshed[sink_5] 0
loadshed[sink_6] 0
loadshed[sink_7] 0
loadshed[sink_8] 0
loadshed[sink_9] 0
loadshed[sink_10] 0
loadshed[sink_11] 0
loadshed[sink_12] 1
loadshed[sink_13] 0
loadshed[sink_14] 0
loadshed[sink_15] 0
loadshed[sink_16] 0
loadshed[sink_17] 0
loadshed[sink_18] 0
loadshed[sink_19] 0
loadshed[sink_20] 0
loadshed[sink_21] 3.7535096871020429e-01
loadshed[sink_22] 0
loadshed[sink_23] 0
loadshed[sink_24] 0
loadshed[sink_25] 0
loadshed[sink_26] 0
loadshed[sink_27] 0
loadshed[sink_28] 0
loadshed[sink_29] 0
flow[source_1,sink_3] 2.0389508254414540e+02
flow[innode_1,sink_16] 1.6354166666666970e+01
flow[innode_6,sink_13] 9.33875274216096
flow[sink_13,sink_14] -7.0154139245057081e+00
flow[sink_14,sink_10] -2.3369580591172280e+01
flow[sink_25,sink_26] 1.5323980813407817e+02
flow[sink_26,sink_9] 8.1770833333333655e+01
flow[sink_9,sink_18] 6.5416666666666671e+01
flow[sink_26,sink_4] 5.5114808134077862e+01
flow[sink_4,sink_20] -1.6525346465296359e+01
flow[sink_18,sink_6] 4.9062500000000313e+01
flow[sink_25,innode_8] -171.186749210809
flow[sink_6,sink_7] 0
flow[sink_6,sink_22] 3.2708333333333641e+01
flow[sink_7,sink_24] 2.6569781032551877e+01
flow[sink_22,sink_1] 1.6354166666666970e+01
flow[sink_24,sink_21] 1.0215614365885202e+01
flow[sink_21,sink_12] 0
flow[sink_7,sink_5] -4.2923947699218544e+01
flow[sink_5,sink_17] -5.9278114365885216e+01
flow[sink_17,sink_4] -5.5285987932707542e+01
flow[sink_17,sink_8] -2.0346293099844349e+01
flow[sink_3,sink_23] 16.3541666666697
flow[sink_8,sink_20] -3.6700459766511017e+01
flow[sink_25,sink_20] 69.5799728984741
flow[sink_25,sink_15] -7.7325951230570112e+01
flow[sink_15,sink_29] 0
flow[sink_29,sink_28] 1.6354166666667879e+01
flow[sink_29,sink_2] 1.1003428456390346e+02
flow[sink_2,sink_15] 9.3680117897236784e+01
flow[sink_29,innode_7] -142.742617897238
flow[innode_4,sink_19] 1.0514041392451921e+02
flow[sink_19,innode_3] 3.5346549592846387e+01
flow[innode_4,innode_5] 0
flow[sink_27,innode_5] 0
flow[sink_27,sink_19] -1.6354166666679703e+01
flow[sink_10,sink_11] 3.2708333333333641e+01
flow[sink_10,innode_2] -3.7085530998326455e+01
flow[sink_10,innode_3] -3.5346549592846387e+01
flow[innode_6,sink_25] -9.33875274216096
flow[sink_11,innode_1] 1.6354166666666970e+01
flow[sink_19,innode_2] 3.7085530998326455e+01
flow[source_3,innode_4] 1.0514041392451921e+02
flow[source_2,innode_7] 142.742617897238
flow[sink_3,innode_8] 171.186749210809
pressure[innode_1] 7.4641919143491592e+01
pressure[innode_2] 7.6753743932616160e+01
pressure[innode_3] 7.6675473001105331e+01
pressure[innode_4] 81.01325
pressure[innode_5] 81.01325
pressure[innode_6] 7.3727200405853708e+01
pressure[innode_7] 81.01325
pressure[innode_8] 8.0331706629799683e+01
pressure[source_1] 81.01325
pressure[source_2] 81.01325
pressure[source_3] 81.01325
pressure[sink_1] 5.2262252878162258e+01
pressure[sink_2] 7.4408151555586272e+01
pressure[sink_3] 8.0331706629799683e+01
pressure[sink_4] 55.9271713620613
pressure[sink_5] 4.9398532157442212e+01
pressure[sink_6] 5.4363330488549629e+01
pressure[sink_7] 3.1546797975104042e+01
pressure[sink_8] 5.4582041700210084e+01
pressure[sink_9] 5.8040415292007914e+01
pressure[sink_10] 7.4793620451095137e+01
pressure[sink_11] 7.4641919143491592e+01
pressure[sink_12] 1.01325
pressure[sink_13] 7.3675717422636737e+01
pressure[sink_14] 7.3688272103435779e+01
pressure[sink_15] 7.4102306617417227e+01
pressure[sink_16] 7.3620269308673912e+01
pressure[sink_17] 5.3814323203183285e+01
pressure[sink_18] 5.5673445316809257e+01
pressure[sink_19] 7.6753743932616160e+01
pressure[sink_20] 5.7139547617422856e+01
pressure[sink_21] 1.01325
pressure[sink_22] 5.3326022020517264e+01
pressure[sink_23] 80.1669886181399
pressure[sink_24] 1.1263784376644617e+00
pressure[sink_25] 7.3727200405853708e+01
pressure[sink_26] 6.2934610711719266e+01
pressure[sink_27] 7.6402613935472658e+01
pressure[sink_28] 7.6900161891194855e+01
pressure[sink_29] 7.7195444164812031e+01
interdiction[source_1,sink_3] 0
interdiction[innode_1,sink_16] 0
interdiction[innode_6,sink_13] 0
interdiction[sink_13,sink_14] 0
interdiction[sink_14,sink_10] 0
interdiction[sink_25,sink_26] 0
interdiction[sink_26,sink_9] 0
interdiction[sink_9,sink_18] 0
interdiction[sink_26,sink_4] 0
interdiction[sink_4,sink_20] 0
interdiction[sink_18,sink_6] 0
interdiction[sink_25,innode_8] 0
interdiction[sink_6,sink_7] 1
interdiction[sink_6,sink_22] 0
interdiction[sink_7,sink_24] 0
interdiction[sink_22,sink_1] 0
interdiction[sink_24,sink_21] 0
interdiction[sink_21,sink_12] 0
interdiction[sink_7,sink_5] 0
interdiction[sink_5,sink_17] 0
interdiction[sink_17,sink_4] 0
interdiction[sink_17,sink_8] 0
interdiction[sink_3,sink_23] 0
interdiction[sink_8,sink_20] 0
interdiction[sink_25,sink_20] 0
interdiction[sink_25,sink_15] 0
interdiction[sink_15,sink_29] 1
interdiction[sink_29,sink_28] 0
interdiction[sink_29,sink_2] 0
interdiction[sink_2,sink_15] 0
interdiction[sink_29,innode_7] 0
interdiction[innode_4,sink_19] 0
interdiction[sink_19,innode_3] 0
interdiction[innode_4,innode_5] 0
interdiction[sink_27,innode_5] 1
interdiction[sink_27,sink_19] 0
interdiction[sink_10,sink_11] 0
interdiction[sink_10,innode_2] 0
interdiction[sink_10,innode_3] 0
interdiction[innode_6,sink_25] 0
interdiction[sink_11,innode_1] 0
interdiction[sink_19,innode_2] 0
interdiction[source_3,innode_4] 0
interdiction[source_2,innode_7] 0
interdiction[sink_3,innode_8] 0
WCcheckFlow[source_1,sink_3] 39
WCcheckFlow[innode_1,sink_16] 1
WCcheckFlow[innode_6,sink_13] 13
WCcheckFlow[sink_13,sink_14] 12
WCcheckFlow[sink_14,sink_10] 11
WCcheckFlow[sink_25,sink_26] 15
WCcheckFlow[sink_26,sink_9] 5
WCcheckFlow[sink_9,sink_18] 4
WCcheckFlow[sink_26,sink_4] 9
WCcheckFlow[sink_4,sink_20] 1
WCcheckFlow[sink_18,sink_6] 3
WCcheckFlow[sink_25,innode_8] -36
WCcheckFlow[sink_6,sink_7] 0
WCcheckFlow[sink_6,sink_22] 2
WCcheckFlow[sink_7,sink_24] 3
WCcheckFlow[sink_22,sink_1] 1
WCcheckFlow[sink_24,sink_21] 2
WCcheckFlow[sink_21,sink_12] 1
WCcheckFlow[sink_7,sink_5] -4
WCcheckFlow[sink_5,sink_17] -5
WCcheckFlow[sink_17,sink_4] -7
WCcheckFlow[sink_17,sink_8] 1
WCcheckFlow[sink_3,sink_23] 1
WCcheckFlow[sink_8,sink_20] 0
WCcheckFlow[sink_25,sink_20] 0
WCcheckFlow[sink_25,sink_15] 6
WCcheckFlow[sink_15,sink_29] 0
WCcheckFlow[sink_29,sink_28] 1
WCcheckFlow[sink_29,sink_2] -4
WCcheckFlow[sink_2,sink_15] -5
WCcheckFlow[sink_29,innode_7] 2
WCcheckFlow[innode_4,sink_19] -3
WCcheckFlow[sink_19,innode_3] -5
WCcheckFlow[innode_4,innode_5] 1
WCcheckFlow[sink_27,innode_5] 0
WCcheckFlow[sink_27,sink_19] -1
WCcheckFlow[sink_10,sink_11] 3
WCcheckFlow[sink_10,innode_2] 1
WCcheckFlow[sink_10,innode_3] 6
WCcheckFlow[innode_6,sink_25] -14
WCcheckFlow[sink_11,innode_1] 2
WCcheckFlow[sink_19,innode_2] 0
WCcheckFlow[source_3,innode_4] -1
WCcheckFlow[source_2,innode_7] -1
WCcheckFlow[sink_3,innode_8] 37
